<?xml version = "1.0" standalone="yes"?>
<!-- This file has been generated by DOcplex version 2.23.222  -->
<CPLEXSolution version="1.0">
 <header
   problemName="CVRP"
   objectiveValue="15412.3"
  />
 <variables>
  <variable name="x_0_1" index="0" value="1.00000"/>
  <variable name="x_0_3" index="2" value="1.00000"/>
  <variable name="x_0_5" index="4" value="1.00000"/>
  <variable name="x_0_6" index="5" value="1.00000"/>
  <variable name="x_0_8" index="7" value="1.00000"/>
  <variable name="x_0_9" index="8" value="1.00000"/>
  <variable name="x_0_10" index="9" value="1.00000"/>
  <variable name="x_0_12" index="11" value="1.00000"/>
  <variable name="x_0_13" index="12" value="1.00000"/>
  <variable name="x_0_15" index="14" value="1.00000"/>
  <variable name="x_0_16" index="15" value="1.00000"/>
  <variable name="x_0_17" index="16" value="1.00000"/>
  <variable name="x_0_25" index="24" value="1.00000"/>
  <variable name="x_0_26" index="25" value="1.00000"/>
  <variable name="x_0_27" index="26" value="1.00000"/>
  <variable name="x_0_28" index="27" value="1.00000"/>
  <variable name="x_1_0" index="28" value="1.00000"/>
  <variable name="x_2_0" index="56" value="1.00000"/>
  <variable name="x_3_0" index="84" value="1.00000"/>
  <variable name="x_4_0" index="112" value="1.00000"/>
  <variable name="x_5_22" index="161" value="1.00000"/>
  <variable name="x_6_21" index="188" value="1.00000"/>
  <variable name="x_7_0" index="196" value="1.00000"/>
  <variable name="x_8_18" index="241" value="1.00000"/>
  <variable name="x_9_4" index="256" value="1.00000"/>
  <variable name="x_10_11" index="290" value="1.00000"/>
  <variable name="x_11_7" index="315" value="1.00000"/>
  <variable name="x_12_14" index="349" value="1.00000"/>
  <variable name="x_13_0" index="364" value="1.00000"/>
  <variable name="x_14_0" index="392" value="1.00000"/>
  <variable name="x_15_0" index="420" value="1.00000"/>
  <variable name="x_16_24" index="471" value="1.00000"/>
  <variable name="x_17_0" index="476" value="1.00000"/>
  <variable name="x_18_20" index="523" value="1.00000"/>
  <variable name="x_19_0" index="532" value="1.00000"/>
  <variable name="x_20_19" index="579" value="1.00000"/>
  <variable name="x_21_0" index="588" value="1.00000"/>
  <variable name="x_22_0" index="616" value="1.00000"/>
  <variable name="x_23_2" index="646" value="1.00000"/>
  <variable name="x_24_0" index="672" value="1.00000"/>
  <variable name="x_25_0" index="700" value="1.00000"/>
  <variable name="x_26_0" index="728" value="1.00000"/>
  <variable name="x_27_23" index="779" value="1.00000"/>
  <variable name="x_28_0" index="784" value="1.00000"/>
  <variable name="u_1" index="812" value="46.00000"/>
  <variable name="u_2" index="813" value="48.00000"/>
  <variable name="u_3" index="814" value="48.00000"/>
  <variable name="u_4" index="815" value="48.00000"/>
  <variable name="u_5" index="816" value="9.00000"/>
  <variable name="u_6" index="817" value="23.00000"/>
  <variable name="u_7" index="818" value="45.00000"/>
  <variable name="u_8" index="819" value="11.00000"/>
  <variable name="u_9" index="820" value="26.00000"/>
  <variable name="u_10" index="821" value="12.00000"/>
  <variable name="u_11" index="822" value="39.00000"/>
  <variable name="u_12" index="823" value="21.00000"/>
  <variable name="u_13" index="824" value="48.00000"/>
  <variable name="u_14" index="825" value="48.00000"/>
  <variable name="u_15" index="826" value="48.00000"/>
  <variable name="u_16" index="827" value="17.00000"/>
  <variable name="u_17" index="828" value="41.00000"/>
  <variable name="u_18" index="829" value="26.00000"/>
  <variable name="u_19" index="830" value="45.00000"/>
  <variable name="u_20" index="831" value="32.00000"/>
  <variable name="u_21" index="832" value="47.00000"/>
  <variable name="u_22" index="833" value="41.00000"/>
  <variable name="u_23" index="834" value="28.00000"/>
  <variable name="u_24" index="835" value="48.00000"/>
  <variable name="u_25" index="836" value="43.00000"/>
  <variable name="u_26" index="837" value="46.00000"/>
  <variable name="u_27" index="838" value="27.00000"/>
  <variable name="u_28" index="839" value="30.00000"/>
 </variables>
</CPLEXSolution>
